certificates/rado_a9_c147_N18.cnf
c Rad2 upper bound instance: x1 + 9*x2 - x3 = 147, interval [1,18]
p cnf 18 72
1 7 17 0
-1 -7 -17 0
1 16 18 0
-1 -16 -18 0
2 8 17 0
-2 -8 -17 0
2 17 18 0
-2 -17 -18 0
3 9 17 0
-3 -9 -17 0
3 18 0
-3 -18 0
1 4 16 0
-1 -4 -16 0
4 10 17 0
-4 -10 -17 0
2 5 16 0
-2 -5 -16 0
5 11 17 0
-5 -11 -17 0
3 6 16 0
-3 -6 -16 0
6 12 17 0
-6 -12 -17 0
4 7 16 0
-4 -7 -16 0
7 13 17 0
-7 -13 -17 0
5 8 16 0
-5 -8 -16 0
8 14 17 0
-8 -14 -17 0
6 9 16 0
-6 -9 -16 0
9 15 17 0
-9 -15 -17 0
7 10 16 0
-7 -10 -16 0
10 16 17 0
-10 -16 -17 0
8 11 16 0
-8 -11 -16 0
11 17 0
-11 -17 0
9 12 16 0
-9 -12 -16 0
12 17 18 0
-12 -17 -18 0
1 13 15 0
-1 -13 -15 0
10 13 16 0
-10 -13 -16 0
2 14 15 0
-2 -14 -15 0
11 14 16 0
-11 -14 -16 0
3 15 0
-3 -15 0
12 15 16 0
-12 -15 -16 0
4 15 16 0
-4 -15 -16 0
13 16 0
-13 -16 0
5 15 17 0
-5 -15 -17 0
14 16 17 0
-14 -16 -17 0
6 15 18 0
-6 -15 -18 0
15 16 18 0
-15 -16 -18 0
