certificates/rado_a9_c147_N18.drat
-18 0
3 0
-15 0
6 0
16 0
0
